#from Caballero, Grossmann (Design of distillation sequences: from conventional to fully thermally coupled distillation systems, Computers & Chemical Engineering)
#example 2 -reduced(1,2,3)

set C := 1 2 3;

param alpha := 1 5.965909 2 2.295454 3 1;